Running for instance ./models/r107.txt
Generating routes...
Execution time:  0.260576416667  minutes
Academic license - for non-commercial use only
Warning: constraint name "Cliente esta na rota" has a space
Optimize a model with 26 rows, 5000 columns and 30683 nonzeros
Variable types: 0 continuous, 5000 integer (0 binary)
Coefficient statistics:
  Matrix range     [1e+00, 1e+00]
  Objective range  [5e+01, 2e+02]
  Bounds range     [1e+00, 1e+00]
  RHS range        [1e+00, 2e+01]
Found heuristic solution: objective 1033.4724594
Presolve removed 0 rows and 2071 columns
Presolve time: 0.03s
Presolved: 26 rows, 2929 columns, 18242 nonzeros
Found heuristic solution: objective 841.1312533
Variable types: 0 continuous, 2929 integer (2929 binary)

Root relaxation: objective 4.911787e+02, 92 iterations, 0.00 seconds

    Nodes    |    Current Node    |     Objective Bounds      |     Work
 Expl Unexpl |  Obj  Depth IntInf | Incumbent    BestBd   Gap | It/Node Time

*    0     0               0     491.1787113  491.17871  0.00%     -    0s

Explored 0 nodes (92 simplex iterations) in 0.04 seconds
Thread count was 8 (of 8 available processors)

Solution count 3: 491.179 841.131 859.198 

Optimal solution found (tolerance 1.00e-04)
Best objective 4.911787113187e+02, best bound 4.911787113187e+02, gap 0.0000%
6 13
12 24 23 22 4
19 11 7
3 9 10 20
2 15 14 16 17 5
Distance: 491.178711319
Execution time:  0.266974  minutes
